p edge 51 603
e 4 3
e 5 1
e 5 2
e 6 5
e 7 1
e 7 4
e 7 5
e 7 6
e 8 1
e 8 2
e 8 3
e 8 4
e 8 6
e 9 1
e 9 2
e 9 5
e 9 6
e 9 7
e 10 1
e 10 2
e 10 3
e 10 7
e 10 8
e 11 4
e 11 10
e 12 3
e 12 6
e 12 7
e 12 9
e 12 10
e 12 11
e 13 3
e 13 4
e 13 5
e 13 7
e 13 8
e 14 1
e 14 3
e 14 8
e 14 9
e 15 1
e 15 6
e 15 7
e 15 11
e 15 12
e 16 5
e 16 7
e 16 8
e 16 9
e 16 11
e 17 2
e 17 3
e 17 4
e 17 6
e 17 7
e 17 8
e 17 9
e 17 11
e 17 12
e 17 16
e 18 6
e 18 8
e 18 9
e 18 10
e 18 14
e 18 16
e 18 17
e 19 3
e 19 4
e 19 5
e 19 6
e 19 7
e 19 9
e 19 10
e 19 13
e 19 14
e 19 15
e 19 16
e 19 17
e 19 18
e 20 2
e 20 3
e 20 5
e 20 7
e 20 10
e 20 13
e 20 15
e 20 16
e 20 18
e 20 19
e 21 2
e 21 3
e 21 5
e 21 6
e 21 7
e 21 9
e 21 10
e 21 11
e 21 12
e 21 15
e 21 17
e 21 18
e 21 20
e 22 2
e 22 3
e 22 4
e 22 8
e 22 12
e 22 13
e 22 15
e 22 16
e 23 3
e 23 4
e 23 7
e 23 8
e 23 9
e 23 12
e 23 13
e 23 14
e 23 15
e 23 17
e 23 19
e 23 20
e 23 21
e 23 22
e 24 2
e 24 3
e 24 5
e 24 7
e 24 12
e 24 13
e 24 14
e 24 17
e 24 20
e 24 22
e 24 23
e 25 6
e 25 12
e 25 15
e 25 21
e 25 22
e 25 24
e 26 1
e 26 2
e 26 4
e 26 6
e 26 8
e 26 11
e 26 13
e 26 14
e 26 20
e 26 22
e 26 23
e 26 24
e 26 25
e 27 1
e 27 2
e 27 4
e 27 5
e 27 7
e 27 9
e 27 12
e 27 13
e 27 16
e 27 18
e 27 22
e 27 23
e 27 24
e 27 25
e 28 1
e 28 5
e 28 6
e 28 7
e 28 9
e 28 10
e 28 12
e 28 13
e 28 19
e 28 20
e 28 21
e 28 22
e 28 26
e 29 2
e 29 3
e 29 5
e 29 9
e 29 10
e 29 11
e 29 12
e 29 13
e 29 17
e 29 19
e 29 20
e 29 22
e 29 25
e 29 27
e 30 1
e 30 9
e 30 11
e 30 13
e 30 14
e 30 15
e 30 17
e 30 18
e 30 19
e 30 21
e 30 26
e 30 27
e 30 29
e 31 2
e 31 4
e 31 6
e 31 9
e 31 10
e 31 12
e 31 13
e 31 16
e 31 17
e 31 19
e 31 23
e 31 24
e 31 25
e 31 27
e 31 28
e 32 3
e 32 4
e 32 6
e 32 7
e 32 8
e 32 9
e 32 10
e 32 11
e 32 12
e 32 17
e 32 20
e 32 21
e 32 22
e 32 23
e 32 31
e 33 1
e 33 3
e 33 6
e 33 8
e 33 9
e 33 10
e 33 13
e 33 15
e 33 16
e 33 17
e 33 21
e 33 22
e 33 25
e 33 27
e 33 29
e 34 1
e 34 2
e 34 4
e 34 5
e 34 7
e 34 8
e 34 10
e 34 11
e 34 17
e 34 18
e 34 19
e 34 21
e 34 23
e 34 24
e 34 26
e 34 27
e 34 30
e 34 31
e 35 2
e 35 3
e 35 4
e 35 5
e 35 6
e 35 7
e 35 8
e 35 9
e 35 14
e 35 15
e 35 16
e 35 17
e 35 21
e 35 22
e 35 24
e 35 25
e 35 29
e 35 30
e 35 32
e 35 34
e 36 1
e 36 4
e 36 5
e 36 12
e 36 15
e 36 20
e 36 23
e 36 25
e 36 27
e 36 30
e 36 31
e 36 33
e 36 34
e 36 35
e 37 4
e 37 5
e 37 6
e 37 11
e 37 15
e 37 16
e 37 20
e 37 24
e 37 25
e 37 26
e 37 29
e 37 32
e 37 33
e 37 34
e 37 35
e 38 3
e 38 4
e 38 7
e 38 8
e 38 11
e 38 12
e 38 16
e 38 18
e 38 20
e 38 22
e 38 23
e 38 25
e 38 28
e 38 29
e 38 33
e 38 34
e 38 35
e 38 36
e 38 37
e 39 1
e 39 2
e 39 4
e 39 6
e 39 7
e 39 11
e 39 12
e 39 17
e 39 19
e 39 21
e 39 22
e 39 25
e 39 29
e 39 30
e 39 32
e 39 33
e 39 34
e 40 1
e 40 2
e 40 3
e 40 4
e 40 5
e 40 6
e 40 7
e 40 8
e 40 12
e 40 14
e 40 16
e 40 17
e 40 22
e 40 23
e 40 25
e 40 26
e 40 27
e 40 30
e 40 36
e 40 39
e 41 3
e 41 5
e 41 6
e 41 7
e 41 9
e 41 11
e 41 13
e 41 14
e 41 16
e 41 21
e 41 24
e 41 25
e 41 27
e 41 28
e 41 29
e 41 31
e 41 32
e 41 33
e 41 35
e 41 36
e 41 40
e 42 5
e 42 6
e 42 7
e 42 11
e 42 12
e 42 13
e 42 16
e 42 17
e 42 20
e 42 21
e 42 22
e 42 26
e 42 28
e 42 30
e 42 31
e 42 32
e 42 34
e 43 1
e 43 5
e 43 6
e 43 7
e 43 10
e 43 11
e 43 13
e 43 14
e 43 15
e 43 16
e 43 19
e 43 21
e 43 23
e 43 26
e 43 31
e 43 32
e 43 35
e 43 36
e 43 40
e 43 42
e 44 1
e 44 6
e 44 7
e 44 8
e 44 10
e 44 13
e 44 15
e 44 17
e 44 19
e 44 22
e 44 24
e 44 25
e 44 28
e 44 29
e 44 32
e 44 37
e 44 38
e 44 40
e 44 41
e 44 42
e 45 1
e 45 4
e 45 7
e 45 8
e 45 11
e 45 13
e 45 14
e 45 15
e 45 17
e 45 19
e 45 23
e 45 25
e 45 26
e 45 30
e 45 33
e 45 35
e 45 36
e 45 37
e 45 39
e 45 40
e 45 42
e 45 43
e 45 44
e 46 1
e 46 3
e 46 4
e 46 6
e 46 8
e 46 11
e 46 14
e 46 16
e 46 17
e 46 21
e 46 22
e 46 23
e 46 25
e 46 27
e 46 32
e 46 35
e 46 37
e 46 38
e 46 39
e 46 40
e 46 42
e 47 9
e 47 10
e 47 12
e 47 14
e 47 18
e 47 19
e 47 21
e 47 24
e 47 27
e 47 28
e 47 29
e 47 31
e 47 33
e 47 41
e 47 43
e 47 44
e 47 46
e 48 7
e 48 8
e 48 9
e 48 10
e 48 12
e 48 14
e 48 15
e 48 17
e 48 19
e 48 21
e 48 24
e 48 25
e 48 26
e 48 27
e 48 28
e 48 29
e 48 30
e 48 31
e 48 32
e 48 33
e 48 35
e 48 39
e 48 40
e 48 41
e 48 44
e 48 46
e 49 1
e 49 5
e 49 6
e 49 8
e 49 11
e 49 14
e 49 15
e 49 16
e 49 17
e 49 19
e 49 21
e 49 22
e 49 28
e 49 31
e 49 32
e 49 34
e 49 42
e 49 43
e 49 46
e 49 47
e 49 48
e 50 3
e 50 5
e 50 7
e 50 8
e 50 11
e 50 13
e 50 15
e 50 16
e 50 17
e 50 19
e 50 23
e 50 24
e 50 28
e 50 29
e 50 30
e 50 33
e 50 34
e 50 36
e 50 39
e 50 40
e 50 41
e 50 49
e 51 3
e 51 6
e 51 8
e 51 13
e 51 17
e 51 18
e 51 20
e 51 22
e 51 24
e 51 26
e 51 27
e 51 30
e 51 31
e 51 35
e 51 37
e 51 41
e 51 43
e 51 50
